* #variable= 20 #constraint= 36
* Defense
+14 x7 +17 x10 -5 x11 >= 0 ;
-14 x7 -17 x10 -5 x11 +93 x11 >= -5 ;
+14 x17 +17 x20 +5 x1 -93 x1 >= -62 ;
+14 x7 -9 x12 >= 0 ;
-14 x7 -9 x12 +93 x12 >= -9 ;
+14 x17 +9 x2 -93 x2 >= -79 ;
+17 x10 -4 x13 >= 0 ;
-17 x10 -4 x13 +93 x13 >= -4 ;
+17 x20 +4 x3 -93 x3 >= -76 ;
+9 x2 +1 x9 -6 x14 >= 0 ;
-9 x2 -1 x9 -6 x14 +93 x14 >= -6 ;
+9 x12 +1 x19 +6 x4 -93 x4 >= -83 ;
+17 x8 -10 x16 >= 0 ;
-17 x8 -10 x16 +93 x16 >= -10 ;
+17 x18 +10 x6 -93 x6 >= -76 ;
+9 x2 +17 x8 +1 x9 -14 x17 >= 0 ;
-9 x2 -17 x8 -1 x9 -14 x17 +93 x17 >= -14 ;
+9 x12 +17 x18 +1 x19 +14 x7 -93 x7 >= -66 ;
+10 x6 +17 x10 -17 x18 >= 0 ;
-10 x6 -17 x10 -17 x18 +93 x18 >= -17 ;
+10 x16 +17 x20 +17 x8 -93 x8 >= -66 ;
+4 x3 -17 x20 >= 0 ;
-4 x3 -17 x20 +93 x20 >= -17 ;
+4 x13 +17 x10 -93 x10 >= -89 ;
* Weak Conflict Free
-14 x7 -17 x10 +5 x1 +32 ~x1 >= 0 ;
-14 x7 +9 x2 +15 ~x2 >= 0 ;
-17 x10 +4 x3 +18 ~x3 >= 0 ;
-9 x2 -1 x9 +6 x4 +11 ~x4 >= 0 ;
+1 x5 +1 ~x5 >= 1 ;
-17 x8 +10 x6 +18 ~x6 >= 0 ;
-9 x2 -17 x8 -1 x9 +14 x7 +28 ~x7 >= 0 ;
-10 x6 -17 x10 +17 x8 +28 ~x8 >= 0 ;
+1 x9 +1 ~x9 >= 1 ;
-4 x3 +17 x10 +5 ~x10 >= 0 ;
1 x1 1 ~x2 1 x3 1 x4 1 ~x5 1 x6 1 x7 1 ~x8 1 ~x9 1 ~x10 >= 1 ;
1 x1 1 x3 1 x4 1 x6 1 x7 >= 1 ;
